174	32	4	63	
15	18	15	14

0	0	0	0	0	0	3	1	2	3
1	6	7	0	0	6	2	8	16
2	0	0	6	6	10	3	5	15	20
3	0	0	0	3	10	3	4	9	20
4	1	5	8	0	6	3	7	12	13
5	3	0	1	0	6	2	6	7
6	0	7	0	0	10	3	9	10	14
7	0	0	5	0	7	2	8	11
8	7	0	8	0	3	1	19
9	0	9	1	0	9	1	30
10	5	0	6	0	5	1	29
11	0	9	2	10	1	1	30
12	6	4	2	0	3	3	18	22	24
13	6	0	0	0	4	2	19	23
14	0	6	0	2	5	3	17	18	25
15	1	8	0	2	4	2	21	23
16	0	0	3	0	6	2	24	26
17	0	6	0	6	1	2	22	27
18	6	2	4	7	8	2	19	21
19	0	8	0	6	7	1	28
20	0	0	0	7	1	3	21	22	23
21	0	4	0	5	9	2	26	28
22	8	10	2	0	1	2	26	29
23	9	6	1	0	3	1	24
24	3	0	9	0	6	1	27
25	6	5	0	0	2	1	27
26	5	0	8	4	5	1	30
27	0	3	0	0	9	2	28	29
28	0	3	0	0	9	1	31
29	0	2	10	6	10	1	31
30	0	0	0	4	8	1	31
31	0	0	0	0	0	0
